num_offers = 30;
num_halls = 10;
start=[79,56,33,48,31,72,46,64,75,33,17,33,72,13,57,9,6,67,68,25,15,59,19,32,46,47,17,15,14,9];
end=[96,93,85,88,56,78,100,94,82,84,69,92,82,75,98,77,22,88,81,46,80,78,44,74,93,81,75,45,93,78];
price=[647,3123,4077,2622,1133,689,3800,2870,314,2133,2316,2320,394,5027,2991,3184,957,1969,421,1430,3163,484,1854,1514,4783,3137,4578,1648,6447,1386];
requirement=[890,422,244,790,453,909,656,361,704,984,398,302,223,774,486,545,200,459,257,499,743,698,539,215,648,549,973,200,379,580];
capacity=[276,549,447,872,250,427,944,785,996,757];
